50
13184

125 252
393 324
323 872
302 527
663 595
654 312
976 756
473 694
493 376
279 132
273 370
329 922
209 890
839 831
614 855
469 878
244 52
565 213
395 114
112 798
425 112
544 757
461 846
93 446
25 725
641 595
856 533
247 253
141 228
699 750
698 38
541 171
542 46
886 540
38 725
882 426
481 408
175 11
601 389
906 856
750 835
864 378
823 863
905 487
214 322
207 553
242 504
685 171
160 783
710 2
